!HF STO-3G PRINTBASIS PRINTMOS
*xyz 0 1
O 0.000000 -0.007156 0.965491
H 0.000000 0.001486 -0.003471
H 0.000000 0.931026 1.207929
*
